Crypto/instances/samples/hf_n32/hf_n32_cnf00.sol
c DPLL-like Solver for max-min SAT
f file hf_n32_cnf00.cnf
p cnf 32 220
s max  220 4 -1 -25 -2 15 14 32 -13 -16 -24 -3 -12 10 11 19 -23 -9 -6 18 8 -7 -21 -31 -28 -30 -5 -17 -20 -26 -27 -29 -22
s min  192 -12 -9 -27 -11 14 -28 -13 15 16 -31 -10 -23 24 -30 -8 -19 -20 -17 22 32 -26 -21 18 25 29 1 2 3 4 -5 -6 -7